w = 15;
n = 25;
measures = [|7, 12,
|6, 12,
|6, 9,
|7, 7,
|3, 16,
|3, 16,
|3, 10,
|3, 10,
|3, 9,
|2, 12,
|3, 5,
|3, 5,
|2, 7,
|2, 7,
|2, 6,
|2, 5,
|2, 5,
|2, 4,
|1, 7,
|2, 3,
|1, 6,
|1, 5,
|1, 5,
|1, 4,
|1, 3,
|];
initial_x = [0, 7, 0, 6, 0, 3, 6, 9, 12, 0, 2, 5, 8, 10, 12, 0, 2, 4, 6, 7, 9, 10, 11, 12, 13];
initial_y = [0, 0, 12, 12, 21, 21, 21, 21, 21, 37, 37, 37, 37, 37, 37, 49, 49, 49, 49, 49, 49, 49, 49, 49, 49];